!File created by the GAMESS Input Deck Generator Plugin for Avogadro
 $BASIS GBASIS=STO NGAUSS=3 $END
 $CONTRL SCFTYP=RHF RUNTYP=SADPOINT $END
 $STATPT hssend=.t. OPTTOL=0.0005 NSTEP=50 $END
 $STATPT HESS=calc ihrep=5 $END
 $FORCE nvib=2 $END
 $ZMAT DLC=.t. auto=.t. nonvdw(1)=1,6,3,4,4,5,5,6,1,2,2,3 $END
!$ZMAT IFZMAT(1)=1,1,6,1,3,4 fvalue(1)=2.00,2.00 $END

 $DATA 
Title
C1
C     6.0     0.33251148    -0.03636171    -3.48460293
C     6.0    -0.70271039     0.07651871    -2.53989244
C     6.0    -0.67319691     1.14229834    -1.62517357
C     6.0     0.97345519     0.98903614    -0.62603658
C     6.0     1.64806747    -0.13054550    -1.14228213
C     6.0     1.99722898    -0.06618199    -2.50463772
C     6.0     2.59269738     1.25545275    -2.93670940
C     6.0     2.42107844     2.35778213    -2.23739600
C     6.0     1.59738231     2.35417819    -0.96928573
O     8.0     1.43438959     3.34684157    -0.27388453
H     1.0     0.56330568     0.84639066    -4.06939602
H     1.0     0.35497451    -0.94018608    -4.08523703
H     1.0    -1.16734922    -0.84426159    -2.20638227
H     1.0    -1.42869043     1.15386617    -0.84646839
H     1.0    -0.49567950     2.13046122    -2.03400612
H     1.0     0.63213086     0.93427604     0.40408662
H     1.0     1.48756397    -1.09963024    -0.68591332
H     1.0     2.49494171    -0.93106985    -2.93369365
H     1.0     3.17228913     1.25515842    -3.85348463
H     1.0     2.86963511     3.29957914    -2.52482367
$END