!File created by the GAMESS Input Deck Generator Plugin for Avogadro
 $BASIS GBASIS=PM3 $END
 $CONTRL SCFTYP=RHF RUNTYP=OPTIMIZE NZVAR=1 mult=1  ICHARG=0 $END
 $STATPT hssend=.t. OPTTOL=0.0005 NSTEP=50 $END
 $STATPT HESS=calc ihrep=5 $END
 $FORCE nvib=2 $END

$DATA 
Title
C1
C     6.0    -0.95369440     1.79177070     0.41096494
C     6.0     0.28477564     1.05902576    -0.16798571
C     6.0    -2.17809105     1.16498637    -0.30694196
H     1.0    -0.89105761     2.86453629     0.25018969
H     1.0    -1.01743710     1.61524785     1.48073447
C     6.0    -1.68816233    -0.22106060    -0.74991232
H     1.0    -2.45061207     1.75043023    -1.18495178
H     1.0    -3.04748869     1.11195970     0.34343338
C     6.0    -0.28485692    -0.25141639    -0.72204274
H     1.0     1.07388914     0.90339738     0.56352365
H     1.0     0.70753247     1.60423481    -1.01204288
H     1.0    -2.24540544    -0.76681060    -1.49746132
H     1.0     0.32125986    -0.91119206    -1.33856201
B     5.0    -1.22666657    -1.27539170     0.55621803
H     1.0    -0.03449197    -1.30740488     0.65815514
H     1.0    -1.62810814    -0.78854537     1.52000105
H     1.0    -1.56436431    -2.32886338     0.23233138
$END
