!File created by the GAMESS Input Deck Generator Plugin for Avogadro
 $BASIS GBASIS=STO NGAUSS=3 $END
 $CONTRL SCFTYP=RHF RUNTYP=IRC $END
 $STATPT HESS=READ ihrep=5 $END
 $irc npoint=100 saddle=.t. tsengy=.t. forwrd=.f. opttol=0.0005 stride=0.1 $end $FORCE nvib=2 $END

 $DATA 
Title
C1
C     6.0     0.33251148    -0.03636171    -3.48460293
C     6.0    -0.70271039     0.07651871    -2.53989244
C     6.0    -0.67319691     1.14229834    -1.62517357
C     6.0     0.97345519     0.98903614    -0.62603658
C     6.0     1.64806747    -0.13054550    -1.14228213
C     6.0     1.99722898    -0.06618199    -2.50463772
C     6.0     2.59269738     1.25545275    -2.93670940
C     6.0     2.42107844     2.35778213    -2.23739600
C     6.0     1.59738231     2.35417819    -0.96928573
O     8.0     1.43438959     3.34684157    -0.27388453
H     1.0     0.56330568     0.84639066    -4.06939602
H     1.0     0.35497451    -0.94018608    -4.08523703
H     1.0    -1.16734922    -0.84426159    -2.20638227
H     1.0    -1.42869043     1.15386617    -0.84646839
H     1.0    -0.49567950     2.13046122    -2.03400612
H     1.0     0.63213086     0.93427604     0.40408662
H     1.0     1.48756397    -1.09963024    -0.68591332
H     1.0     2.49494171    -0.93106985    -2.93369365
H     1.0     3.17228913     1.25515842    -3.85348463
H     1.0     2.86963511     3.29957914    -2.52482367
 $END

 $HESS
ENERGY IS     -416.0940647111 E(NUC) IS      511.4290616748
 1  1 2.30280046E-01 7.30766196E-02-3.10047142E-01-1.84314995E-01-9.15009836E-02
 1  2 8.18928503E-02 1.10059379E-01 7.62875477E-02 1.30790632E-01-1.45403454E-01
 1  3 8.22606474E-02-2.56307907E-02 4.85621112E-02-7.01514127E-02-1.70460572E-01
 1  4 1.10355338E-01 9.76161354E-03 2.08585817E-01-3.75645258E-02-2.51446178E-02
 1  5-1.56916859E-02-6.21409162E-03 9.85088927E-03 3.17341261E-03 1.02222780E-02
 1  6-2.79854063E-03 7.96893352E-03-1.47298460E-03 3.59704719E-03-1.39379412E-03
 1  7-4.39434055E-02-7.06750321E-02 7.79230312E-02-5.15701013E-02 2.17464620E-03
 1  8 2.44184662E-02-6.52392290E-03 8.69465385E-03 9.43351888E-03-1.82629520E-03
 1  9-4.74384800E-04-2.97914313E-03-1.96255484E-02 5.47300607E-04-9.22851784E-03
 1 10 7.70070449E-03 6.74911773E-04 2.23968436E-03-2.00331416E-04-1.50658370E-03
 1 11 1.64914725E-03-2.33742991E-02-3.99720437E-03-1.51731544E-02 1.55233529E-03
 1 12-1.91740352E-05 7.40104360E-04 3.29757328E-03-6.59281604E-04 1.78888792E-03
 2  1 7.30766196E-02 8.90498168E-01 5.31340781E-02 3.06108193E-03-1.50211946E-01
 2  2-2.30138216E-02 2.59661000E-02 3.40941061E-04-3.49773509E-02 6.55396665E-03
 2  3-3.92023717E-03-2.10872345E-03 1.00949893E-03 3.64825891E-03 1.01876620E-02
 2  4-6.01757869E-03-4.63245576E-02-1.05404302E-02-1.32260428E-02-1.32923912E-03
 2  5-7.28815149E-03-1.41671554E-04-1.44498733E-03-6.20424447E-04-1.78548451E-03
 2  6-6.24347724E-04 3.03545400E-04 6.07245424E-04-9.95969801E-05-1.12021386E-04
 2  7-6.53269587E-02-3.45018045E-01 1.69403424E-01-5.36086026E-03-3.55493098E-01
 2  8-1.82332082E-01-2.83721581E-02 1.01889520E-02 2.58771755E-02-3.56341580E-03
 2  9-4.20827397E-03-6.05443751E-03 2.08933249E-03 2.11990082E-03 1.93700406E-03
 2 10-1.07963859E-03 1.03699054E-04-1.30545191E-04-8.31997121E-04 3.47767131E-04
 2 11-6.90765113E-04 1.23584988E-02 1.13595775E-03 6.47876593E-03 3.56691333E-04
 2 12-4.14880084E-05 4.66897172E-04 6.27024478E-04 3.32447605E-04 8.06735432E-05
 3  1-3.10047142E-01 5.31340781E-02 7.65938046E-01 2.25736169E-01-7.83327697E-03
 3  2-3.00922639E-01 1.70695873E-02-8.35853868E-03-2.67857650E-02 4.27972628E-03
 3  3-1.77009346E-04-1.30954908E-03-4.67811337E-03-9.15333573E-03-2.60709146E-02
 3  4 6.33129022E-03 1.18039355E-03-2.42159402E-02-6.88078635E-03-9.22096841E-03
 3  5-1.22517553E-03-1.83544523E-03 2.96366545E-03 1.65932261E-03-1.13164193E-04
 3  6 3.68427932E-04-3.27291039E-03-4.06008306E-04 1.06720408E-03 1.16001184E-03
 3  7 4.93387016E-02 1.64613672E-01-1.87106168E-01 8.39654194E-03-1.76437192E-01
 3  8-1.94401323E-01 1.17170164E-02-9.68540606E-03-4.55271523E-03 2.91861329E-03
 3  9-5.21478341E-03-1.58444247E-04-3.51913720E-03-5.50077204E-04-8.17671104E-04
 3 10-1.14504546E-03 7.56429887E-04 1.05047195E-03-4.00432677E-04 1.90316674E-03
 3 11-4.79022566E-04 2.58298195E-03-1.66562713E-04 9.26516427E-04 4.57101015E-04
 3 12 9.23596590E-04-2.63908555E-05 1.97465216E-04-1.12479031E-04 6.11697373E-04
 4  1-1.84314995E-01 3.06108193E-03 2.25736169E-01 5.26678552E-01 1.78114591E-01
 4  2-2.51391555E-01-1.28147036E-01-4.45441940E-02-4.30455065E-03 3.54207793E-02
 4  3-2.21158886E-02 5.30940764E-03-5.53314335E-02 2.05318585E-02 3.75079821E-02
 4  4-7.85560907E-02-4.12341461E-04-8.84828129E-02 7.58189354E-03 4.49528181E-03
 4  5 2.94150571E-03 1.74270758E-03-2.51650923E-03-2.88840756E-04-2.33507296E-03
 4  6-1.94364282E-04-2.90909110E-03-1.73982357E-04-1.60785284E-03 4.24887908E-04
 4  7-1.83370740E-02 3.68159518E-03-6.93949984E-03 2.43752286E-03-3.94230883E-03
 4  8-9.37473624E-03-1.28457716E-01-1.52131166E-01 7.07703485E-02 1.03987609E-02
 4  9 2.57940563E-02 2.28320295E-02 8.03131100E-03-5.78403935E-03-6.03601445E-03
 4 10-1.90923478E-03-6.91772903E-04-1.25159849E-03 2.14612341E-03-2.79394889E-03
 4 11 2.58493273E-03 4.66856708E-03 7.70437165E-04 3.44664505E-03-4.44352504E-04
 4 12 2.19238177E-06-9.41650509E-05-1.09861879E-03 2.82625675E-04-4.82406118E-04
 5  1-9.15009836E-02-1.50211946E-01-7.83327697E-03 1.78114591E-01 8.36930033E-01
 5  2 6.36513389E-02 5.04301943E-02-3.44724502E-01-1.26051800E-01-8.98014971E-02
 5  3 3.93754550E-02-2.34395833E-02 4.51540391E-02-2.80130926E-02-5.25448436E-02
 5  4 5.36912087E-02 1.19593930E-04 6.60107019E-02-6.34753036E-03-4.45026599E-03
 5  5-1.21683882E-03-2.14811246E-03 2.64221081E-03-5.53763023E-05 6.27812502E-03
 5  6 4.38697817E-04 4.87561676E-03-7.92639954E-04 1.23044828E-03-1.20312229E-03
 5  7-2.18770747E-02 1.22203645E-02 2.87651753E-02 3.41946751E-02 4.15053748E-03
 5  8-1.91352963E-02-1.34147050E-01-3.57428796E-01 1.03304477E-01-7.51958484E-03
 5  9 7.21062457E-03 1.86898149E-03-1.66619837E-02-1.87448419E-02-3.77271760E-02
 5 10 5.55994210E-03 1.77663646E-04 1.71748756E-03-6.09861657E-04-2.62620822E-04
 5 11-1.60907539E-05-3.28743937E-03-1.91812964E-04-1.47721665E-03 3.63724255E-04
 5 12-2.34992718E-04 7.74046511E-05 9.05965766E-04-2.33908309E-04 4.29029077E-04
 6  1 8.18928503E-02-2.30138216E-02-3.00922639E-01-2.51391555E-01 6.36513389E-02
 6  2 6.08284144E-01 1.32102676E-01-1.23148620E-01-1.61637281E-01-1.43801916E-01
 6  3 5.35384039E-02-4.39153314E-02 2.32201467E-02-6.03923983E-02-9.94947995E-02
 6  4 7.61395327E-02 1.44742016E-03 1.10350524E-01-9.27426539E-03-3.98128929E-03
 6  5-3.25100068E-03-2.86201746E-03 2.44997130E-03 3.88050489E-04 9.03244248E-03
 6  6 3.91638923E-03 6.35873878E-03-6.89622982E-04 1.52677893E-04-1.71770248E-03
 6  7 3.36427993E-02-4.18001825E-03 3.77184751E-03 2.45015210E-02 2.65514558E-03
 6  8-4.92301768E-03 6.08758550E-02 9.31331809E-02-1.06648285E-01-1.64136820E-02
 6  9-1.96305047E-02-1.62789755E-02-1.86290268E-02 1.68754320E-02 8.50358326E-03
 6 10 5.83386530E-03 9.48285010E-05 2.32881145E-03 1.99606653E-03-1.10789121E-03
 6 11 2.03689402E-03-7.75359384E-03-1.43911078E-03-4.19279951E-03 3.66579458E-04
 6 12-7.35701098E-04 4.53252589E-04 1.20936252E-03-2.87453064E-04 5.05795497E-04
 7  1 1.10059379E-01 2.59661000E-02 1.70695873E-02-1.28147036E-01 5.04301943E-02
 7  2 1.32102676E-01 3.88385018E-01 9.19482566E-03-4.05321748E-01 1.05575503E-01
 7  3-6.35303312E-02 3.39875897E-02-7.98974911E-02 6.97860009E-02 8.02566439E-02
 7  4-5.07230086E-02 4.88115041E-03-9.01998902E-02 7.20108250E-03 1.22839138E-03
 7  5 1.76285231E-03 3.79152694E-03-1.06872347E-03 1.54863661E-03-3.03014832E-02
 7  6-1.92860898E-02-1.80394072E-02 9.37629238E-04 4.91315812E-03 5.08214926E-03
 7  7-1.31160030E-02-1.45006539E-03-8.44454030E-03-4.82573830E-03-1.56184988E-05
 7  8 5.26134814E-03 3.49811569E-03-1.16074472E-02-1.16916252E-02-2.50658718E-01
 7  9-4.56641125E-03 2.07519782E-01-5.75978539E-02-6.62978490E-02 5.08825884E-02
 7 10-6.83313030E-03 3.58475582E-04-9.48310840E-04-1.07354006E-03-5.00509328E-04
 7 11-1.23840158E-03 5.26875405E-03 7.88253251E-04 1.92931867E-03-7.62506199E-04
 7 12 5.01778071E-04-4.84932489E-04-7.78419088E-04 2.76373884E-04-1.03418173E-03
 8  1 7.62875477E-02 3.40941061E-04-8.35853868E-03-4.45441940E-02-3.44724502E-01
 8  2-1.23148620E-01 9.19482566E-03 8.92021560E-01 2.48647993E-02 6.55303374E-02
 8  3-6.66801938E-02 2.30133980E-02-1.86283017E-02 2.62141836E-02 3.67753253E-02
 8  4-3.35123929E-02-1.61621194E-03-5.57588235E-02 5.64918988E-03 3.12324610E-03
 8  5 3.66243982E-03 3.70625541E-03-1.70670633E-03 3.81653816E-04-1.57863288E-02
 8  6-2.36315848E-03-1.36502059E-02-2.62606855E-04-2.27164425E-03 2.37152363E-03
 8  7-3.51351602E-03 7.04515076E-04-3.51913973E-03-4.61542827E-03 1.36360686E-03
 8  8-2.98831104E-03 1.60134805E-03-1.77505228E-02-3.31702238E-02 2.76420964E-03
 8  9-8.47054724E-02 3.09790486E-03-4.21723002E-02-4.01451951E-01 1.43622487E-01
 8 10-1.83277729E-03-7.91449779E-05-2.26835867E-04-7.64049144E-04-1.80472267E-03
 8 11 7.89213254E-04 2.70749546E-03 9.58689023E-04 2.85735163E-03-4.30612304E-04
 8 12 1.66185610E-04-1.70636615E-04-1.37783104E-03 2.60916201E-04-4.45907414E-04
 9  1 1.30790632E-01-3.49773509E-02-2.67857650E-02-4.30455065E-03-1.26051800E-01
 9  2-1.61637281E-01-4.05321748E-01 2.48647993E-02 6.11094603E-01 1.60020622E-01
 9  3-6.29903634E-02-7.09120135E-03-7.31095412E-02 6.92634565E-02 8.38068212E-02
 9  4-5.48099634E-02-1.13999758E-03-1.09265892E-01 8.03024467E-03-1.12293663E-03
 9  5 4.42164438E-03 1.77289206E-03-1.82219251E-03 6.48881170E-04-1.55384812E-02
 9  6-1.00794871E-02-8.77837609E-03-4.71064558E-04 1.55434700E-03 3.12118901E-03
 9  7-1.52111301E-02-1.21099820E-03-6.95446943E-03 4.20727144E-03 1.88412093E-04
 9  8-2.23630157E-03 1.31958269E-05 1.58919634E-02 1.10747220E-02 2.23816850E-01
 9  9-4.23030262E-03-2.64872349E-01 5.94874336E-02 1.31579157E-01-1.20875158E-01
 9 10-2.39834633E-02-8.12907809E-05-9.76594762E-03 2.33976212E-05-2.12363378E-03
 9 11 5.71354171E-04 6.48258698E-03 1.94438213E-03 4.44256569E-03-8.05875972E-04
 9 12 3.61622702E-04-4.27434310E-04-1.08758417E-03 1.83082583E-04-4.93090127E-04
10  1-1.45403454E-01 6.55396665E-03 4.27972628E-03 3.54207793E-02-8.98014971E-02
10  2-1.43801916E-01 1.05575503E-01 6.55303374E-02 1.60020622E-01 2.32953763E-01
10  3 1.50483160E-02-3.15264663E-01-8.25437528E-02 6.77335052E-02-4.03871737E-03
10  4 5.04162452E-02 6.25876092E-03 1.35401986E-01-1.11628703E-02 8.22326266E-03
10  5-9.51458592E-03 1.79240915E-03-1.95893485E-02 5.35584071E-03-1.06553252E-01
10  6-4.72902333E-02 5.72201532E-02 2.10078539E-02-3.36054121E-03-7.39079430E-03
10  7 1.26165293E-02 1.36527764E-03 7.94620738E-03 3.85103831E-03-1.46297130E-03
10  8 2.98339190E-03 8.43956564E-04 1.26655286E-03 7.64586321E-04-1.95669349E-02
10  9 5.26583848E-03-1.77797784E-02-2.38553218E-02 1.56391334E-03-1.20755754E-02
10 10-8.53937971E-02-7.05987419E-03 1.34688788E-01 9.89123633E-03-9.38894752E-03
10 11-1.97356759E-03-1.34889384E-03-1.07195623E-03-1.34992341E-04 5.15158580E-04
10 12-1.53516477E-04-4.67134852E-04 9.41945969E-04 3.67943383E-04 3.78204634E-03
11  1 8.22606474E-02-3.92023717E-03-1.77009346E-04-2.21158886E-02 3.93754550E-02
11  2 5.35384039E-02-6.35303312E-02-6.66801938E-02-6.29903634E-02 1.50483160E-02
11  3 7.37245192E-01 9.49319221E-02 8.82704182E-02-3.46327243E-01-3.26750261E-02
11  4-3.65936615E-02 1.30510527E-02-8.51778013E-02 4.12996341E-03-5.31822278E-03
11  5 1.16660578E-03-5.06554290E-03 1.54052262E-03 1.69381735E-03-8.08010594E-02
11  6-2.05214123E-01 2.87197294E-02-1.56569814E-02-6.43763107E-02-9.17911264E-03
11  7-8.87584664E-03-1.03605822E-03-4.48079761E-03-3.17646407E-03 1.51111693E-03
11  8-1.02957631E-03-1.09596638E-03-1.36745970E-03 5.90545863E-04 3.29115247E-03
11  9-8.49428694E-04 3.33622913E-03 2.23659832E-02-1.83418296E-03 1.09772701E-02
11 10-1.26021599E-02-8.07813775E-02 1.58209017E-02 2.51435025E-02-1.63096900E-02
11 11-1.93958163E-02 6.11350858E-03 1.18658999E-03 4.90362768E-03 5.59830781E-04
11 12 1.43054067E-04-1.48460609E-04 2.33195734E-03-3.68074231E-05-4.24299915E-04
12  1-2.56307907E-02-2.10872345E-03-1.30954908E-03 5.30940764E-03-2.34395833E-02
12  2-4.39153314E-02 3.39875897E-02 2.30133980E-02-7.09120135E-03-3.15264663E-01
12  3 9.49319221E-02 8.00473276E-01 1.12199176E-01-1.30005967E-01-2.03205780E-01
12  4 3.15398605E-02-4.29623344E-02 2.68798466E-03-5.11346816E-03 5.97442101E-03
12  5-2.11285548E-04 2.18567032E-02 2.91947247E-02-4.33909861E-03 4.45361313E-02
12  6 4.34313359E-02-1.31669537E-01-9.10676338E-03-3.63764436E-02 1.52944685E-02
12  7 8.59837418E-04-3.31020526E-04 1.65719962E-03-3.39498941E-04 6.69359392E-04
12  8 1.19433781E-03-1.26994718E-03-4.84760368E-04 4.15538248E-04 5.91449570E-03
12  9-1.34913358E-03 3.08807776E-03-1.63971663E-02 1.20632027E-03-7.79752007E-03
12 10 1.17629636E-01 2.30181685E-02-4.24656579E-01-6.61327089E-03 1.63006360E-02
12 11 1.11339377E-02 2.44492611E-03 1.76955404E-03-7.82175965E-03-1.26201613E-03
12 12-4.25747837E-04 1.79486768E-04 4.71996853E-03-2.02545261E-03-4.10484249E-03
13  1 4.85621112E-02 1.00949893E-03-4.67811337E-03-5.53314335E-02 4.51540391E-02
13  2 2.32201467E-02-7.98974911E-02-1.86283017E-02-7.31095412E-02-8.25437528E-02
13  3 8.82704182E-02 1.12199176E-01 3.57796061E-01-5.62843026E-02-1.96723523E-01
13  4-1.33202040E-01 8.85698521E-03 7.40060917E-02 8.07517828E-04-1.88466046E-02
13  5 2.22321342E-02-1.59699578E-03 2.67862850E-03 4.46342227E-03 5.63431114E-03
13  6-5.38794115E-03-1.74470681E-02-2.30054822E-03-7.79272351E-03 1.62092570E-03
13  7-5.57357106E-03-3.34740884E-04-4.41278064E-03-1.42778846E-03 5.80827930E-04
13  8-1.73962663E-03 4.21300406E-03 1.86379756E-03 9.08787891E-04 2.98467074E-03
13  9-4.94198240E-04 2.72533442E-03 7.25631907E-03-1.63519579E-04 3.82404762E-03
13 10-6.85830847E-03 8.11272474E-03-5.09897128E-03-6.21852881E-02-4.40037928E-02
13 11 3.41207899E-02 3.71747016E-03-3.14696427E-03 2.29826464E-02 3.29656462E-04
13 12-1.63638985E-03 4.56554021E-04-3.83926290E-04 1.92388436E-04 4.48603407E-04
14  1-7.01514127E-02 3.64825891E-03-9.15333573E-03 2.05318585E-02-2.80130926E-02
14  2-6.03923983E-02 6.97860009E-02 2.62141836E-02 6.92634565E-02 6.77335052E-02
14  3-3.46327243E-01-1.30005967E-01-5.62843026E-02 9.15823378E-01-1.10540206E-01
14  4 2.66840542E-02-1.53959427E-01 9.21691195E-02-1.61912010E-02-4.21729098E-04
14  5 3.89862721E-02-1.15637720E-05 3.29740078E-03-2.84467684E-04 2.76461656E-02
14  6-4.12894275E-02-1.57459351E-03-4.61080482E-03 5.36990595E-04 1.20375805E-03
14  7 4.82378792E-03-1.50630425E-04 3.81015120E-03 1.28000468E-03-5.97411606E-05
14  8 1.29217077E-03 5.26718173E-04-6.32195644E-04 9.33664156E-04-3.78255713E-03
14  9 1.17595758E-03-3.81654050E-03-8.89905203E-03 6.02844335E-04-4.23757202E-03
14 10 1.64236715E-03 8.84903454E-03 8.90948459E-03-5.99598896E-02-3.91706101E-01
14 11 1.41996155E-01 2.77013336E-04 8.15355745E-03-3.86570416E-02-2.18755855E-03
14 12-6.60668628E-03 9.67824617E-04 1.14611609E-03 8.64382786E-04-8.69221634E-04
15  1-1.70460572E-01 1.01876620E-02-2.60709146E-02 3.75079821E-02-5.25448436E-02
15  2-9.94947995E-02 8.02566439E-02 3.67753253E-02 8.38068212E-02-4.03871737E-03
15  3-3.26750261E-02-2.03205780E-01-1.96723523E-01-1.10540206E-01 7.28690603E-01
15  4 1.98918828E-01 1.09918496E-02-3.31578904E-01-1.03353494E-02 1.95610216E-02
15  5-2.16538508E-02 7.57719710E-04-4.71927473E-03-2.15377678E-03-4.14945741E-03
15  6-8.21862193E-03 2.19020148E-02 2.08735489E-03 9.34133125E-03-4.74430402E-04
15  7 1.40491909E-02 6.28363398E-04 8.67219443E-03 5.49054934E-03-1.87269789E-03
15  8 3.18189071E-03 2.38667542E-03 1.33115676E-03 7.52072883E-04-4.32176606E-03
15  9 1.67049853E-03-3.11313044E-03-1.07394072E-02 1.61075582E-03-4.67706644E-03
15 10 2.83317092E-02-3.56791175E-02-1.21275556E-03 4.40441341E-02 1.51274200E-01
15 11-1.41553463E-01-1.39634302E-02 5.17302830E-03-1.21558040E-02-7.99881196E-05
15 12-1.68661872E-03 8.20892849E-04 9.79059035E-04-6.10962042E-04-4.82612039E-04
16  1 1.10355338E-01-6.01757869E-03 6.33129022E-03-7.85560907E-02 5.36912087E-02
16  2 7.61395327E-02-5.07230086E-02-3.35123929E-02-5.48099634E-02 5.04162452E-02
16  3-3.65936615E-02 3.15398605E-02-1.33202040E-01 2.66840542E-02 1.98918828E-01
16  4 3.53783787E-01-9.25621617E-02-3.76328789E-01-1.15117455E-01-3.68998324E-02
16  5 5.23956770E-02 1.85881710E-02-1.03380829E-02-1.29389298E-02-1.58441701E-02
16  6 9.59770467E-03-9.06182352E-03 2.40224174E-03-5.14318537E-03 4.17044835E-04
16  7-1.78770896E-02-6.26619749E-04-1.18340818E-02-7.91504722E-03 3.36732786E-03
16  8-3.47297442E-03-1.14182134E-03-6.94319199E-04-1.37465575E-03 2.36452225E-03
16  9-1.58888680E-03 5.71085927E-04 6.79215598E-03-1.37004178E-03 2.19755239E-03
16 10 1.22706177E-03 4.29097589E-03 3.18082719E-03 4.23594848E-03 4.11327277E-03
16 11 7.78644947E-03-1.35982745E-01 1.41976587E-01 8.11786951E-02-1.50175299E-03
16 12-1.82011616E-02 1.42723588E-03 7.69899383E-03-1.71790917E-04 7.73767527E-03
17  1 9.76161354E-03-4.63245576E-02 1.18039355E-03-4.12341461E-04 1.19593930E-04
17  2 1.44742016E-03 4.88115041E-03-1.61621194E-03-1.13999758E-03 6.25876092E-03
17  3 1.30510527E-02-4.29623344E-02 8.85698521E-03-1.53959427E-01 1.09918496E-02
17  4-9.25621617E-02 8.14725447E-01 6.29420560E-02-7.65931399E-02-2.66494941E-01
17  5 4.68289762E-02-1.20042141E-02-4.39318433E-02 4.61092245E-03 1.46066293E-03
17  6 4.73951520E-03 2.29487366E-03-6.36008966E-04-1.39620830E-03 1.01428924E-03
17  7 1.22798709E-02 9.04213503E-04 7.74988621E-03-1.16277359E-02 2.62574254E-03
17  8-7.51319289E-03 4.50444600E-04-6.09348572E-05 1.04802825E-04-1.71819603E-04
17  9-2.18497544E-04 5.66673560E-04 5.78351224E-04 2.90861800E-04-8.40857723E-05
17 10 5.13898500E-03-6.72645909E-03-3.86372437E-04-7.88236836E-03 7.13425176E-03
17 11 3.79172189E-02 1.50636037E-01-3.25136207E-01-1.16192755E-01 4.55696670E-03
17 12 3.28263874E-03-5.19969792E-03-2.96929166E-03-1.00843660E-03-4.17117943E-03
18  1 2.08585817E-01-1.05404302E-02-2.42159402E-02-8.84828129E-02 6.60107019E-02
18  2 1.10350524E-01-9.01998902E-02-5.57588235E-02-1.09265892E-01 1.35401986E-01
18  3-8.51778013E-02 2.68798466E-03 7.40060917E-02 9.21691195E-02-3.31578904E-01
18  4-3.76328789E-01 6.29420560E-02 6.22096666E-01 7.48438718E-02 4.33403496E-02
18  5-1.19636667E-01-1.04934626E-02-1.61001382E-02 1.28241199E-02-1.33742178E-02
18  6 7.30208180E-03-1.11504742E-02 1.85503369E-03-3.39713729E-03 1.43244633E-03
18  7-3.11523015E-02-2.17578398E-04-1.97376243E-02-1.51633918E-02 4.98652033E-03
18  8-9.01948625E-03 8.78557280E-04 2.17924961E-03-1.51634208E-03 4.99125157E-03
18  9-1.54574306E-03 5.70433760E-03 1.43321642E-02 2.44113719E-04 6.21489110E-03
18 10-4.05572184E-03-1.85117237E-03-1.32174290E-03-4.18878643E-04-9.91400471E-03
18 11-8.46768827E-03 9.96117503E-02-1.21397271E-01-1.24493689E-01 1.08690310E-02
18 12 3.07145936E-02-6.73914587E-04 4.29650664E-03-3.98871625E-03-2.34783156E-04
19  1-3.75645258E-02-1.32260428E-02-6.88078635E-03 7.58189354E-03-6.34753036E-03
19  2-9.27426539E-03 7.20108250E-03 5.64918988E-03 8.03024467E-03-1.11628703E-02
19  3 4.12996341E-03-5.11346816E-03 8.07517828E-04-1.61912010E-02-1.03353494E-02
19  4-1.15117455E-01-7.65931399E-02 7.48438718E-02 4.15092380E-01 3.13195486E-02
19  5-3.23238160E-01-1.15942397E-01 5.80131945E-02 8.68977655E-02 9.00055470E-03
19  6 2.51266188E-02 8.95890420E-03-4.23520332E-03-1.44277188E-03 6.09195207E-03
19  7-2.22933860E-03-3.92254134E-03-1.12149102E-04-3.42557732E-04-3.25958996E-04
19  8-4.09735645E-04 5.70398294E-04-2.50994744E-04 3.87324051E-04-2.22607852E-04
19  9 2.86872628E-05-3.28527393E-04-1.52732594E-03 8.85283232E-05-1.40558828E-04
19 10 5.60995628E-04-4.39154378E-04-2.02109432E-04 6.50573687E-03 5.68246814E-04
19 11 2.37562777E-03 7.90054544E-03 1.75424391E-02-9.13413243E-03-1.76637434E-01
19 12-6.89853860E-03 1.86761630E-01 9.75994482E-03-1.68288764E-02-9.17855516E-03
20  1-2.51446178E-02-1.32923912E-03-9.22096841E-03 4.49528181E-03-4.45026599E-03
20  2-3.98128929E-03 1.22839138E-03 3.12324610E-03-1.12293663E-03 8.22326266E-03
20  3-5.31822278E-03 5.97442101E-03-1.88466046E-02-4.21729098E-04 1.95610216E-02
20  4-3.68998324E-02-2.66494941E-01 4.33403496E-02 3.13195486E-02 9.64876937E-01
20  5 2.53449810E-01 3.51542744E-02-5.84349934E-01-2.68529808E-01 1.93307395E-02
20  6 5.47724745E-03-3.34030444E-02-6.30143603E-03 7.89322320E-03 1.14751600E-02
20  7 6.61939920E-04 3.93279185E-05 1.50870135E-03 1.04998966E-03-6.31255116E-04
20  8 3.15856190E-04 3.62440854E-04-8.49673569E-05 1.84911030E-04 6.95291011E-04
20  9-3.84237341E-04 1.09527728E-03 1.95204571E-04 2.42581613E-04 3.40424164E-04
20 10-1.08306868E-03-1.55317889E-03-2.17355497E-04-1.78964580E-03-5.59691483E-04
20 11-3.24073917E-03-2.12851828E-02-2.03806719E-02 1.19129800E-02-3.52883680E-03
20 12-7.65691820E-02-5.80324881E-03 1.21623229E-02-1.91255416E-02-2.36394738E-02
21  1-1.56916859E-02-7.28815149E-03-1.22517553E-03 2.94150571E-03-1.21683882E-03
21  2-3.25100068E-03 1.76285231E-03 3.66243982E-03 4.42164438E-03-9.51458592E-03
21  3 1.16660578E-03-2.11285548E-04 2.22321342E-02 3.89862721E-02-2.16538508E-02
21  4 5.23956770E-02 4.68289762E-02-1.19636667E-01-3.23238160E-01 2.53449810E-01
21  5 8.20467387E-01 7.87963572E-02-2.94446768E-01-3.12266893E-01 9.72666148E-03
21  6-4.24663452E-02-2.35553308E-02 3.97740449E-03 6.84981949E-03-2.62990591E-03
21  7-4.13258270E-03-2.58321693E-03 7.31247227E-04-6.81433811E-04 1.97859566E-04
21  8-3.82435616E-04 1.80563309E-04-4.98947982E-04 5.01750178E-04-4.00840109E-04
21  9 1.94300256E-04-6.97676810E-04-1.36393340E-03-4.86317967E-04-3.18714526E-04
21 10-1.06170387E-03 1.44814272E-04 2.19601709E-04 3.99720590E-03-1.31128994E-04
21 11-5.79817109E-03-8.23780222E-03-1.52333406E-02 7.21416743E-03 1.86641205E-01
21 12-6.65260699E-04-3.53622727E-01 1.67051962E-03 1.35358176E-02 1.16943334E-02
22  1-6.21409162E-03-1.41671554E-04-1.83544523E-03 1.74270758E-03-2.14811246E-03
22  2-2.86201746E-03 3.79152694E-03 3.70625541E-03 1.77289206E-03 1.79240915E-03
22  3-5.06554290E-03 2.18567032E-02-1.59699578E-03-1.15637720E-05 7.57719710E-04
22  4 1.85881710E-02-1.20042141E-02-1.04934626E-02-1.15942397E-01 3.51542744E-02
22  5 7.87963572E-02 3.62584772E-01 1.26656936E-01-2.68568638E-01-1.56291457E-01
22  6-2.39195592E-02 8.62712162E-02 1.17325585E-02 1.21257092E-02 2.23028748E-02
22  7-4.13714816E-04-6.69082214E-04 4.14827170E-04 1.33968871E-04-2.57219396E-04
22  8 1.90087017E-04 8.35034197E-05-2.26415508E-06 5.84304932E-05 4.00332540E-04
22  9-2.68951600E-04 3.88344288E-04-9.21909541E-04-2.46015270E-04-1.04586834E-05
22 10 1.97227613E-04-2.71237281E-03 2.02723349E-05-7.01293773E-04-1.22681516E-04
22 11-8.99864892E-04-1.74813432E-03-2.57518236E-03 1.84283136E-03 1.02206655E-02
22 12 2.01951120E-02 1.26089886E-02-1.27439207E-01-1.47694226E-01 5.73880430E-02
23  1 9.85088927E-03-1.44498733E-03 2.96366545E-03-2.51650923E-03 2.64221081E-03
23  2 2.44997130E-03-1.06872347E-03-1.70670633E-03-1.82219251E-03-1.95893485E-02
23  3 1.54052262E-03 2.91947247E-02 2.67862850E-03 3.29740078E-03-4.71927473E-03
23  4-1.03380829E-02-4.39318433E-02-1.61001382E-02 5.80131945E-02-5.84349934E-01
23  5-2.94446768E-01 1.26656936E-01 1.13312726E+00 2.10551019E-01-2.99549835E-02
23  6-1.31365893E-01 2.91571666E-02 2.95343079E-02-3.14443975E-03-5.71532279E-02
23  7-3.46739934E-05-1.00437675E-04-6.05446720E-06-7.71402831E-04 3.21672624E-04
23  8-1.57269127E-04-1.27397262E-04 1.55105261E-04 5.29806762E-06 1.43880685E-04
23  9 2.89135265E-04-1.93317013E-04-3.40691872E-04 7.60219091E-05-4.12216513E-04
23 10-2.37941252E-03-5.74818114E-03-4.54712402E-05-1.92902716E-04 9.45976108E-04
23 11-3.62483355E-04-1.31790163E-03-2.78025097E-03 2.92781873E-03-6.02518542E-03
23 12 6.14230131E-03 6.75018222E-03-1.52220491E-01-3.73964249E-01 9.14189588E-02
24  1 3.17341261E-03-6.20424447E-04 1.65932261E-03-2.88840756E-04-5.53763023E-05
24  2 3.88050489E-04 1.54863661E-03 3.81653816E-04 6.48881170E-04 5.35584071E-03
24  3 1.69381735E-03-4.33909861E-03 4.46342227E-03-2.84467684E-04-2.15377678E-03
24  4-1.29389298E-02 4.61092245E-03 1.28241199E-02 8.68977655E-02-2.68529808E-01
24  5-3.12266893E-01-2.68568638E-01 2.10551019E-01 6.53616328E-01 8.57267412E-02
24  6 2.98803565E-02-2.10573853E-01 3.03023388E-02-3.44983989E-02-3.78924006E-02
24  7 5.23687694E-04-5.60081866E-04 5.21904482E-04-5.15296613E-04-1.55932577E-04
24  8 6.49810105E-05-1.70616026E-04 1.21527257E-04 1.08347873E-04-1.76419426E-05
24  9 3.18764816E-05 5.17499770E-05 1.83118446E-04 3.11925927E-04-4.44015681E-04
24 10 1.36570867E-03-2.22612768E-04 1.20081950E-03 6.69899408E-04-4.22138993E-04
24 11 7.45562482E-04 2.76504820E-03 3.36206346E-03-3.93749732E-04 3.76083688E-03
24 12-3.42081395E-02-3.80191244E-03 5.57633518E-02 8.86122048E-02-9.99649083E-02
25  1 1.02222780E-02-1.78548451E-03-1.13164193E-04-2.33507296E-03 6.27812502E-03
25  2 9.03244248E-03-3.03014832E-02-1.57863288E-02-1.55384812E-02-1.06553252E-01
25  3-8.08010594E-02 4.45361313E-02 5.63431114E-03 2.76461656E-02-4.14945741E-03
25  4-1.58441701E-02 1.46066293E-03-1.33742178E-02 9.00055470E-03 1.93307395E-02
25  5 9.72666148E-03-1.56291457E-01-2.99549835E-02 8.57267412E-02 3.83396325E-01
25  6-1.15953269E-03-2.22248998E-01-9.62337180E-02 8.37961886E-02 8.26840229E-02
25  7-4.64251271E-04-3.91914201E-04-1.28823314E-05-8.33744153E-04 4.48338379E-05
25  8-1.09479582E-04 7.26408951E-05-2.56597640E-04 6.79395496E-04-1.16150891E-04
25  9 4.72148362E-04-4.67069394E-05-3.37814917E-03-3.70279563E-03-1.98867353E-03
25 10-3.53893789E-03-9.97249334E-03-1.10657690E-03 1.63995267E-03 5.52303452E-03
25 11 6.52256744E-03-5.04631212E-04-8.52444472E-04 5.99514311E-04 1.04901029E-02
25 12-5.03937853E-03 7.88198549E-03-4.06041044E-03 5.15039861E-03 1.12999969E-02
26  1-2.79854063E-03-6.24347724E-04 3.68427932E-04-1.94364282E-04 4.38697817E-04
26  2 3.91638923E-03-1.92860898E-02-2.36315848E-03-1.00794871E-02-4.72902333E-02
26  3-2.05214123E-01 4.34313359E-02-5.38794115E-03-4.12894275E-02-8.21862193E-03
26  4 9.59770467E-03 4.73951520E-03 7.30208180E-03 2.51266188E-02 5.47724745E-03
26  5-4.24663452E-02-2.39195592E-02-1.31365893E-01 2.98803565E-02-1.15953269E-03
26  6 1.04254755E+00 3.58113452E-01 8.73356847E-02-6.76833358E-01-4.05606325E-01
26  7 1.66706918E-03 4.93469441E-04 7.40106971E-04 5.18454552E-04-6.96037378E-04
26  8 3.56579219E-04-2.67109875E-04-8.72447967E-05-2.63164508E-04 4.32406807E-04
26  9-4.47973418E-04 1.02188594E-03 2.86745435E-03 6.97713951E-04 2.58256146E-03
26 10-9.96379078E-04 3.33542231E-03-4.71203813E-03-2.25063203E-03-9.34069361E-04
26 11-1.79767296E-03-7.68570749E-04-4.95678075E-04 1.06051194E-03-4.79910246E-03
26 12-5.09273909E-03-2.80543083E-03-1.84282639E-02 7.71408691E-03 2.71749839E-02
27  1 7.96893352E-03 3.03545400E-04-3.27291039E-03-2.90909110E-03 4.87561676E-03
27  2 6.35873878E-03-1.80394072E-02-1.36502059E-02-8.77837609E-03 5.72201532E-02
27  3 2.87197294E-02-1.31669537E-01-1.74470681E-02-1.57459351E-03 2.19020148E-02
27  4-9.06182352E-03 2.29487366E-03-1.11504742E-02 8.95890420E-03-3.34030444E-02
27  5-2.35553308E-02 8.62712162E-02 2.91571666E-02-2.10573853E-01-2.22248998E-01
27  6 3.58113452E-01 7.38169642E-01 8.26854920E-02-4.03841765E-01-3.76689033E-01
27  7-2.22157187E-03-2.36161373E-04-1.53011198E-03-1.76863269E-04 6.85772502E-04
27  8-3.40722900E-04 4.09472586E-04-2.55850311E-04-4.66779306E-05-2.59916131E-04
27  9 1.69053696E-04-8.62632481E-05-2.42268487E-03-2.12446919E-03 1.49236783E-03
27 10 1.20161421E-02 3.61251420E-02-1.99050173E-03 6.10701909E-03-1.22836848E-03
27 11-5.02838059E-04 1.59100953E-03 2.12853883E-03-4.60740750E-04 8.88618789E-03
27 12-4.75483662E-04 3.82877911E-03 2.67290442E-03-5.78244523E-03-1.10287046E-03
28  1-1.47298460E-03 6.07245424E-04-4.06008306E-04-1.73982357E-04-7.92639954E-04
28  2-6.89622982E-04 9.37629238E-04-2.62606855E-04-4.71064558E-04 2.10078539E-02
28  3-1.56569814E-02-9.10676338E-03-2.30054822E-03-4.61080482E-03 2.08735489E-03
28  4 2.40224174E-03-6.36008966E-04 1.85503369E-03-4.23520332E-03-6.30143603E-03
28  5 3.97740449E-03 1.17325585E-02 2.95343079E-02 3.03023388E-02-9.62337180E-02
28  6 8.73356847E-02 8.26854920E-02 6.81287331E-02-9.17734155E-02-1.04237761E-01
28  7-1.43963270E-04 1.77787177E-05-1.74285091E-04 2.50107068E-04-1.80557595E-06
28  8 1.19383989E-05 1.20198001E-04 1.11072090E-05-1.77397562E-04 2.45189641E-04
28  9 1.76753543E-05 2.71733207E-04-6.77386680E-05-9.33203547E-06 6.23099161E-04
28 10-4.24483380E-04 1.51358849E-03-9.08539766E-04 4.61233768E-04-1.07183007E-03
28 11-1.27652423E-03 2.52271782E-04 3.62494249E-04-2.48917306E-04-1.40300171E-03
28 12 1.93563207E-03-1.02723539E-03 9.17716415E-04-2.17871362E-04-3.09150026E-03
29  1 3.59704719E-03-9.95969801E-05 1.06720408E-03-1.60785284E-03 1.23044828E-03
29  2 1.52677893E-04 4.91315812E-03-2.27164425E-03 1.55434700E-03-3.36054121E-03
29  3-6.43763107E-02-3.63764436E-02-7.79272351E-03 5.36990595E-04 9.34133125E-03
29  4-5.14318537E-03-1.39620830E-03-3.39713729E-03-1.44277188E-03 7.89322320E-03
29  5 6.84981949E-03 1.21257092E-02-3.14443975E-03-3.44983989E-02 8.37961886E-02
29  6-6.76833358E-01-4.03841765E-01-9.17734155E-02 7.34729067E-01 4.61692514E-01
29  7-5.79502679E-04-1.42454712E-04-4.33769289E-04-2.55923929E-04 2.87229397E-04
29  8-1.96836897E-04 2.47851833E-04 2.58407764E-04 1.05269717E-04-1.03015279E-04
29  9 2.04892428E-04-3.08577171E-04-3.56258453E-04 9.77929321E-06-4.16770664E-04
29 10 2.43465353E-03 4.75819089E-03-7.89346665E-04 2.71196275E-03-1.46660414E-03
29 11-5.80514863E-04 7.48249816E-04 4.63529135E-04 9.60630170E-05 1.20613530E-03