!File created by the GAMESS Input Deck Generator Plugin for Avogadro
 $BASIS GBASIS=STO NGAUSS=3 $END
 $CONTRL SCFTYP=RHF RUNTYP=OPTIMIZE NZVAR=1 mult=1  ICHARG=0 $END
 $STATPT hssend=.t. OPTTOL=0.0005 NSTEP=50 $END
 $STATPT HESS=calc ihrep=5 $END
 $FORCE nvib=2 $END
 $ZMAT DLC=.t. auto=.t. nonvdw(1)=1,6,3,4 $END
 $ZMAT IFZMAT(1)=1,1,6,1,3,4 fvalue(1)=2.00,2.00 $END

 $DATA 
Title
C1
C     6.0     0.78602999    -1.67941999    -3.27028990
C     6.0    -0.26585001    -1.91141999    -2.44409990
C     6.0    -0.82138997    -0.79499000    -1.60112000
C     6.0     0.74558997    -0.01013000    -0.64095998
C     6.0     1.84967995    -0.98821002    -0.93168002
C     6.0     2.33171010    -0.98268998    -2.20451999
C     6.0     2.61705995     0.36254001    -2.75812006
C     6.0     1.97873998     1.46876001    -2.34967995
C     6.0     0.94501001     1.34941995    -1.28912997
O     8.0     0.26388001     2.32963991    -0.99449998
H     1.0     1.22047997    -2.52987003    -3.80141997
H     1.0     0.76977003    -0.72113001    -3.80125999
H     1.0    -0.50413001    -2.92938995    -2.14633989
H     1.0    -1.45081997    -1.16232002    -0.78583997
H     1.0    -1.28385997     0.02457000    -2.15582991
H     1.0     0.45409000     0.06230000     0.40909001
H     1.0     1.92756999    -1.87943995    -0.31665999
H     1.0     3.03723001    -1.76932001    -2.49527001
H     1.0     3.38531995     0.42025000    -3.52466989
H     1.0     2.16968989     2.45268989    -2.75567007
 $END
