!File created by the GAMESS Input Deck Generator Plugin for Avogadro
 $BASIS GBASIS=STO NGAUSS=3 $END
 $CONTRL SCFTYP=RHF RUNTYP=SADPOINT $END
 $STATPT hssend=.t. OPTTOL=0.0005 NSTEP=50 $END
 $STATPT HESS=calc ihrep=5 $END
 $FORCE nvib=2 $END
 $ZMAT DLC=.t. auto=.t. nonvdw(1)=1,6,3,4,4,5,5,6,1,2,2,3 $END
!$ZMAT IFZMAT(1)=1,1,6,1,3,4 fvalue(1)=2.00,2.00 $END

 $DATA 
Title
C1
C     6.0     0.86288822    -1.76380742    -3.26966643
C     6.0    -0.24841613    -1.85610318    -2.42396212
C     6.0    -0.73053652    -0.70681387    -1.78683007
C     6.0     0.76575750    -0.04424284    -0.63700229
C     6.0     1.81994820    -0.93868375    -0.85902441
C     6.0     2.33896780    -0.99507332    -2.16050601
C     6.0     2.49819350     0.33700061    -2.84661198
C     6.0     1.85989869     1.41300237    -2.43281889
C     6.0     0.91561222     1.35316885    -1.25424385
O     8.0     0.31522727     2.33087444    -0.82833141
H     1.0     1.28419459    -2.68782496    -3.65182972
H     1.0     0.87294996    -0.96547252    -4.00159645
H     1.0    -0.41111526    -2.80310535    -1.92249429
H     1.0    -1.53567410    -0.82143855    -1.06901753
H     1.0    -0.82979941     0.19128266    -2.38486814
H     1.0     0.31042981    -0.02986702     0.34902257
H     1.0     1.92302775    -1.80253685    -0.21375304
H     1.0     3.13923478    -1.70140457    -2.35890651
H     1.0     3.16659331     0.37369612    -3.69994926
H     1.0     1.99392760     2.37893033    -2.90176964
 $END
