!File created by the GAMESS Input Deck Generator Plugin for Avogadro
 $BASIS GBASIS=STO NGAUSS=3 $END
 $CONTRL SCFTYP=RHF RUNTYP=SADPOINT $END
 $STATPT hssend=.t. OPTTOL=0.0005 NSTEP=50 $END
 $STATPT HESS=calc ihrep=5 $END
 $FORCE nvib=2 $END
 $ZMAT DLC=.t. auto=.t. nonvdw(1)=6,14,9,15 $END
!$ZMAT IFZMAT(1)=1,6,14,1,9,15 fvalue(1)=1.50,1.50 $END

 $DATA 
Title
C1
C     6.0    -0.91958326     2.00453091     0.01158517
C     6.0     0.27639002     1.02872515     0.14230740
C     6.0    -2.18197489     1.10289550     0.00298287
H     1.0    -0.84284610     2.54579687    -0.92892766
H     1.0    -0.93352216     2.73414540     0.81732321
C     6.0    -1.72647643    -0.25430745    -0.59325618
H     1.0    -2.97755384     1.54957354    -0.58770311
H     1.0    -2.55544782     0.97467244     1.01572406
C     6.0    -0.21412960    -0.23843111    -0.58574319
H     1.0     0.48378959     0.81594020     1.18818033
H     1.0     1.18622661     1.41298473    -0.31227794
H     1.0    -2.14752722    -0.44670516    -1.57115746
H     1.0     0.32039937    -0.58246040    -1.46895599
B     5.0    -1.47426295    -1.43461728     0.29739362
H     1.0     0.01794594    -1.40840006     0.32382461
H     1.0    -1.57779658    -1.29407489     1.44156277
H     1.0    -1.55661035    -2.49536443    -0.15721157
 $END
